;; Mutation-Based Equivalence Benchmark
;; Source:     AutomatArk / instance01077.smt2
;; Mutations:  range_shrink_lo
;; Status:     sat
;;
;; Original regex vs mutated regex
;; Equivalence check: unsat ⟺ L(R1) = L(R2)

(set-info :smt-lib-version 2.6)
(set-info :category "mutation")
(set-info :status sat)
(set-logic QF_S)


;; R1: original
;; R2: mutated (range_shrink_lo)
(assert
  (not
    (=
      (re.++ (str.to_re "/") (re.+ (re.range "0" "9")) (str.to_re "O") (re.+ (re.range "0" "9")) (str.to_re ".jsp?") ((_ re.loop 20 20) (re.union (re.range "a" "z") (re.range "0" "9") (str.to_re "=") (str.to_re "+") (str.to_re "/"))) (str.to_re "/iR\u{a}"))
      (re.++ (str.to_re "/") (re.+ (re.range "0" "9")) (str.to_re "O") (re.+ (re.range "0" "9")) (str.to_re ".jsp?") ((_ re.loop 20 20) (re.union (re.range "a" "z") (re.range "1" "9") (str.to_re "=") (str.to_re "+") (str.to_re "/"))) (str.to_re "/iR\u{a}")))))

(check-sat)
(exit)
